27 =mdim
77 =nblock
3 1 -2 -2 -2 -2 -2 -2 -2 -2 -2 -2 -2 -2 -2 -2 -2 -2 -2 -2 -2 -2 -2 -2 -2 -2 -2 -2 -2 -2 -1 -1 -1 -1 -1 -1 -1 -1 -1 -1 -1 -1 -1 -1 -1 -1 -1 -1 -1 -1 -1 -1 -1 -1 -1 -1 -1 -2 -2 -2 -2 -2 -2 -2 -2 -2 -2 -2 -2 -2 -2 -2 -2 -2 -2 -2 -2
-1 -2 -1 0 0 0 0 0 0 0 0 0 0 0 0 0 0 0 0 0 0 0 0 0 0 0 0
0 3 1 1 1
0 3 2 2 -1
0 31 1 1 -1
0 32 1 1 -1
0 33 1 1 -1
0 34 1 1 -1
0 35 1 1 -1
0 36 1 1 -1
0 37 1 1 -1
0 38 1 1 -1
0 39 1 1 -1
0 40 1 1 -1
0 41 1 1 -1
0 42 1 1 -1
0 43 1 1 -1
0 44 1 1 -1
0 45 1 1 -1
0 46 1 1 -1
0 47 1 1 -1
0 48 1 1 -1
0 49 1 1 -1
0 50 1 1 -1
0 51 1 1 -1
0 52 1 1 -1
0 53 1 1 -1
0 54 1 1 -1
0 55 1 1 -1
0 56 1 1 -1
0 57 1 1 -1
1 1 1 1 1
1 1 2 2 2
1 2 1 1 1
1 3 1 1 1
1 3 2 2 -1
1 4 1 1 1
1 5 2 2 1
1 6 2 2 1
1 13 2 2 1
1 14 2 2 1
1 15 2 2 1
1 22 2 2 1
1 23 2 2 1
1 24 2 2 1
1 31 1 1 -1
1 32 1 1 -1
1 33 1 1 -1
1 34 1 1 -1
1 37 1 1 -1
1 40 1 1 -2
1 41 1 1 -1
1 42 1 1 -1
1 43 1 1 -1
1 46 1 1 -1
1 49 1 1 -2
1 50 1 1 -1
1 51 1 1 -1
1 52 1 1 -1
1 55 1 1 -1
2 1 1 2 2
2 1 2 3 2
2 7 1 1 1
2 8 2 2 1
2 9 2 2 1
2 16 2 2 1
2 17 2 2 1
2 18 2 2 1
2 25 2 2 1
2 26 2 2 1
2 27 2 2 1
2 35 1 1 -1
2 36 1 1 -1
2 43 1 1 -1
2 44 1 1 -1
2 45 1 1 -1
2 52 1 1 -1
2 53 1 1 -1
2 54 1 1 -1
2 58 1 1 -1
2 58 2 2 1
2 62 1 1 1
2 62 2 2 -1
2 63 1 1 1
2 63 2 2 -1
2 71 1 1 -1
2 71 2 2 1
3 1 1 3 1
3 1 2 2 2
3 2 1 1 -1
3 10 1 1 1
3 11 2 2 1
3 12 2 2 1
3 19 2 2 1
3 20 2 2 1
3 21 2 2 1
3 28 2 2 1
3 29 2 2 1
3 30 2 2 1
3 38 1 1 -1
3 39 1 1 -1
3 46 1 1 -1
3 47 1 1 -1
3 48 1 1 -1
3 55 1 1 -1
3 56 1 1 -1
3 57 1 1 -1
3 60 1 1 -1
3 60 2 2 1
3 67 1 1 1
3 67 2 2 -1
3 68 1 1 1
3 68 2 2 -1
3 77 1 1 -1
3 77 2 2 1
4 5 1 1 1
4 5 2 2 -1
4 35 1 1 -1
4 38 1 1 -1
4 41 1 1 -1
4 44 1 1 -1
4 47 1 1 -1
4 50 1 1 -1
4 53 1 1 -1
4 56 1 1 -1
4 58 1 1 1
4 58 2 2 -1
4 59 1 1 1
4 59 2 2 -1
4 62 1 1 -1
4 62 2 2 1
4 70 1 1 -1
4 70 2 2 1
5 8 1 1 1
5 8 2 2 -1
5 35 1 1 1
5 64 1 1 1
5 64 2 2 -1
5 65 1 1 1
5 65 2 2 -1
5 72 1 1 -1
5 72 2 2 1
5 74 1 1 -1
5 74 2 2 1
6 11 1 1 1
6 11 2 2 -1
6 38 1 1 1
6 66 1 1 -1
6 66 2 2 1
6 69 1 1 1
6 69 2 2 -1
7 6 1 1 1
7 6 2 2 -1
7 36 1 1 -1
7 39 1 1 -1
7 42 1 1 -1
7 45 1 1 -1
7 48 1 1 -1
7 51 1 1 -1
7 54 1 1 -1
7 57 1 1 -1
7 60 1 1 1
7 60 2 2 -1
7 61 1 1 1
7 61 2 2 -1
7 67 1 1 -1
7 67 2 2 1
7 76 1 1 -1
7 76 2 2 1
8 9 1 1 1
8 9 2 2 -1
8 36 1 1 1
8 66 1 1 1
8 66 2 2 -1
8 69 1 1 -1
8 69 2 2 1
9 12 1 1 1
9 12 2 2 -1
9 39 1 1 1
10 13 1 1 1
10 13 2 2 -1
10 40 1 1 1
11 16 1 1 1
11 16 2 2 -1
11 43 1 1 1
12 19 1 1 1
12 19 2 2 -1
12 46 1 1 1
13 14 1 1 1
13 14 2 2 -1
13 41 1 1 1
14 17 1 1 1
14 17 2 2 -1
14 44 1 1 1
14 59 1 1 -1
14 59 2 2 1
14 63 1 1 -1
14 63 2 2 1
14 70 1 1 1
14 70 2 2 -1
14 71 1 1 1
14 71 2 2 -1
15 20 1 1 1
15 20 2 2 -1
15 47 1 1 1
15 65 1 1 -1
15 65 2 2 1
15 73 1 1 -1
15 73 2 2 1
15 74 1 1 1
15 74 2 2 -1
15 75 1 1 1
15 75 2 2 -1
16 15 1 1 1
16 15 2 2 -1
16 42 1 1 1
17 18 1 1 1
17 18 2 2 -1
17 45 1 1 1
17 64 1 1 -1
17 64 2 2 1
17 72 1 1 1
17 72 2 2 -1
17 73 1 1 1
17 73 2 2 -1
17 75 1 1 -1
17 75 2 2 1
18 21 1 1 1
18 21 2 2 -1
18 48 1 1 1
19 22 1 1 1
19 22 2 2 -1
19 49 1 1 1
20 25 1 1 1
20 25 2 2 -1
20 52 1 1 1
21 28 1 1 1
21 28 2 2 -1
21 55 1 1 1
22 23 1 1 1
22 23 2 2 -1
22 50 1 1 1
23 26 1 1 1
23 26 2 2 -1
23 53 1 1 1
24 29 1 1 1
24 29 2 2 -1
24 56 1 1 1
25 24 1 1 1
25 24 2 2 -1
25 51 1 1 1
26 27 1 1 1
26 27 2 2 -1
26 54 1 1 1
27 1 3 3 1
27 30 1 1 1
27 30 2 2 -1
27 57 1 1 1
27 61 1 1 -1
27 61 2 2 1
27 68 1 1 -1
27 68 2 2 1
27 76 1 1 1
27 76 2 2 -1
27 77 1 1 1
27 77 2 2 -1
